p cnf 46 137
a 36 31 0
e 1 2 3 4 5 6 7 8 9 10 11 12 13 14 15 16 17 18 19 20 21 22 23 24 25 26 27 28 29 30 32 33 34 35 37 38 39 40 41 42 43 44 45 46 0
1 2 0
-1 2 0
-4 -3 0
-4 -3 0
3 4 0
-5 -4 0
-5 4 0
-6 5 0
-6 3 0
-5 -3 6 0
-10 -8 0
-10 9 0
8 -9 10 0
11 -10 0
11 5 0
10 -5 -11 0
7 11 -12 0
-7 -11 -12 0
7 -11 12 0
-7 11 12 0
13 -6 0
13 12 0
6 -12 -13 0
-2 -13 -14 0
2 13 -14 0
-2 13 14 0
2 -13 14 0
15 -9 0
15 10 0
9 -10 -15 0
-16 9 0
-16 -15 0
-9 15 16 0
18 -4 0
18 17 0
4 -17 -18 0
-19 -3 0
-19 18 0
3 -18 19 0
10 -19 -20 0
-10 19 -20 0
10 19 20 0
-10 -19 20 0
-21 -9 0
-21 10 0
9 -10 21 0
-21 22 -23 0
21 -22 -23 0
-21 -22 23 0
21 22 23 0
20 -23 -24 0
-20 23 -24 0
20 23 24 0
-20 -23 24 0
18 -25 -26 0
-18 25 -26 0
18 25 26 0
-18 -25 26 0
-27 -25 0
-27 -15 0
25 15 27 0
-28 8 0
-28 -27 0
-8 27 28 0
-29 15 0
-29 28 0
-15 -28 29 0
-30 25 0
-30 -29 0
-25 29 30 0
-18 -25 -31 0
18 25 -31 0
-18 25 31 0
18 -25 31 0
-30 31 -32 0
30 -31 -32 0
-30 -31 32 0
30 31 32 0
32 -31 -33 0
-32 31 -33 0
32 31 33 0
-32 -31 33 0
-34 26 0
-34 -33 0
-26 33 34 0
-24 34 -35 0
24 -34 -35 0
-24 -34 35 0
24 34 35 0
-36 5 0
-36 -4 0
-5 4 36 0
37 -3 0
37 -18 0
3 18 -37 0
36 -37 -38 0
-36 37 -38 0
36 37 38 0
-36 -37 38 0
39 35 0
39 38 0
-35 -38 -39 0
40 18 0
40 5 0
-18 -5 -40 0
-41 -1 0
-41 1 0
-29 -41 -42 0
29 41 -42 0
-29 41 42 0
29 -41 42 0
-43 -40 0
-43 -42 0
40 42 43 0
-39 43 -44 0
39 -43 -44 0
-39 -43 44 0
39 43 44 0
45 -16 0
45 44 0
16 -44 -45 0
46 -14 0
46 -45 0
14 45 -46 0
-18 45 -2 21 -10 1 0
4 30 -16 0
43 18 -14 10 0
-41 18 -6 17 0
-41 -24 0
-29 -24 1 2 26 0
-1 15 16 29 8 30 -13 41 0
29 -22 18 6 16 -10 -31 0
24 -4 41 40 26 -13 18 0
1 -33 -11 16 -44 0
39 5 -35 46 -34 11 7 0
-16 2 -37 10 -18 0
46 0
